NAME 
ROWS
 N  OBJ
 L  R0      
 L  R1      
 L  R2      
 E  R3      
 E  R4      
 E  R5      
 E  R6      
 E  R7      
 E  R8      
 E  R9      
 E  R10     
 E  R11     
 E  R12     
COLUMNS
    MARKER    'MARKER'                 'INTORG'
    I0(9)     OBJ       -121
    I0(9)     R0        2
    I0(9)     R1        38
    I0(9)     R2        157
    I0(9)     R3        7
    I0(9)     R4        5
    I0(9)     R5        9
    I0(9)     R6        4
    I0(9)     R7        13
    I0(9)     R12       1
    I1(8)     OBJ       68
    I1(8)     R0        -99
    I1(8)     R1        21
    I1(8)     R2        -143
    I1(8)     R3        10
    I1(8)     R4        5
    I1(8)     R5        7
    I1(8)     R6        11
    I1(8)     R12       1
    I2(6)     OBJ       -191
    I2(6)     R0        48
    I2(6)     R1        88
    I2(6)     R2        157
    I2(6)     R4        13
    I2(6)     R7        3
    I2(6)     R12       1
    I3(9)     OBJ       -122
    I3(9)     R0        187
    I3(9)     R1        -170
    I3(9)     R2        75
    I3(9)     R3        14
    I3(9)     R4        10
    I3(9)     R5        1
    I3(9)     R6        16
    I3(9)     R7        17
    I3(9)     R12       1
    I4(8)     OBJ       57
    I4(8)     R0        187
    I4(8)     R1        -182
    I4(8)     R2        154
    I4(8)     R4        18
    I4(8)     R5        7
    I4(8)     R6        2
    I4(8)     R7        16
    I4(8)     R12       1
    MARKER    'MARKER'                 'INTEND'
    C5(9)     OBJ       -10
    C5(9)     R0        9
    C5(9)     R1        2
    C5(9)     R2        -8
    C5(9)     R3        14
    C5(9)     R4        15
    C5(9)     R6        19
    C5(9)     R9        8
    C5(9)     R10       10
    C5(9)     R11       9
    C6(12)    OBJ       -2
    C6(12)    R0        6
    C6(12)    R1        -9
    C6(12)    R2        2
    C6(12)    R3        -1
    C6(12)    R4        19
    C6(12)    R5        4
    C6(12)    R6        19
    C6(12)    R7        17
    C6(12)    R8        10
    C6(12)    R9        1
    C6(12)    R10       4
    C6(12)    R11       17
    C7(8)     OBJ       -6
    C7(8)     R0        -10
    C7(8)     R1        4
    C7(8)     R2        -3
    C7(8)     R3        15
    C7(8)     R5        17
    C7(8)     R6        4
    C7(8)     R8        11
    C7(8)     R10       18
    C8(11)    OBJ       8
    C8(11)    R0        -1
    C8(11)    R1        -8
    C8(11)    R2        -1
    C8(11)    R3        16
    C8(11)    R4        14
    C8(11)    R6        -1
    C8(11)    R7        9
    C8(11)    R8        18
    C8(11)    R9        7
    C8(11)    R10       19
    C8(11)    R11       5
    C9(10)    OBJ       -10
    C9(10)    R0        -1
    C9(10)    R1        -6
    C9(10)    R2        -5
    C9(10)    R3        3
    C9(10)    R6        1
    C9(10)    R7        15
    C9(10)    R8        3
    C9(10)    R9        7
    C9(10)    R10       3
    C9(10)    R11       10
    C10(1)    R3        1
    C11(1)    R4        1
    C12(1)    R5        1
    C13(1)    R6        1
    C14(1)    R7        1
    C15(1)    R8        1
    C16(1)    R9        1
    C17(1)    R10       1
    C18(1)    R11       1
    C19(1)    R12       1
RHS
    RHS1      R0        5.8103703703703715e+01
    RHS1      R1        7.3451851851851856e+01
    RHS1      R2        1.1577777777777777e+02
    RHS1      R3        64
    RHS1      R4        50
    RHS1      R5        78
    RHS1      R6        67
    RHS1      R7        60
    RHS1      R8        80
    RHS1      R9        88
    RHS1      R10       51
    RHS1      R11       80
    RHS1      R12       1
BOUNDS
 UP BND1      I0(9)     2
 UP BND1      I1(8)     2
 UP BND1      I2(6)     2
 UP BND1      I3(9)     2
 UP BND1      I4(8)     2
ENDATA
